NAME : local_0
TYPE : ATSP
DIMENSION : 7
EDGE_WEIGHT_TYPE : EXPLICIT
EDGE_WEIGHT_FORMAT : FULL_MATRIX
EDGE_WEIGHT_SECTION
0 812 886 10000000 827 412 10000000 
0 0 10000000 10000000 134 515 317 
0 10000000 0 328 10000000 943 10000000 
0 10000000 328 0 10000000 1085 10000000 
0 134 10000000 10000000 0 478 314 
0 515 913 1114 478 0 717 
0 10000000 10000000 10000000 10000000 10000000 0 
EOF